144879
0,57,75,23,101,73,88,79,56,82,33,25,13,49,67,98,18,41,80,68,5,76,45,85,24,44,71,81,50,99,34,102,60,46,3,74,31,62,32,83,52,6,17,14,42,78,90,59,95,77,93,2,100,104,37,103,94,66,40,10,84,47,70,53,35,69,36,48,38,72,1,61,21,20,16,89,63,15,19,55,39,87,12,64,30,97,105,51,4,29,28,54,96,7,8,91,22,11,92,27,26,9,58,65,43,86,0